pure_adt/tip2015_weird_nat_mul3acc_comm13.smt2
(set-logic HORN)
(declare-datatypes ((Nat_518 0)) (((zero_142 ) (succ_138 (p_385 Nat_518)))))
(declare-fun diseqNat_518 (Nat_518 Nat_518) Bool)
(declare-fun p_386 (Nat_518 Nat_518) Bool)
(declare-fun iszero_138 (Nat_518) Bool)
(declare-fun issucc_138 (Nat_518) Bool)
(assert (forall ((x_53523 Nat_518))
	(p_386 x_53523 (succ_138 x_53523))))
(assert (iszero_138 zero_142))
(assert (forall ((x_53525 Nat_518))
	(issucc_138 (succ_138 x_53525))))
(assert (forall ((x_53526 Nat_518))
	(diseqNat_518 zero_142 (succ_138 x_53526))))
(assert (forall ((x_53527 Nat_518))
	(diseqNat_518 (succ_138 x_53527) zero_142)))
(assert (forall ((x_53528 Nat_518) (x_53529 Nat_518))
	(=> (diseqNat_518 x_53528 x_53529)
	    (diseqNat_518 (succ_138 x_53528) (succ_138 x_53529)))))
(declare-fun plus_134 (Nat_518 Nat_518 Nat_518) Bool)
(assert (forall ((x_53429 Nat_518) (z_1868 Nat_518) (y_2099 Nat_518))
	(=> (plus_134 x_53429 z_1868 y_2099)
	    (plus_134 (succ_138 x_53429) (succ_138 z_1868) y_2099))))
(assert (forall ((x_53430 Nat_518))
	(plus_134 x_53430 zero_142 x_53430)))
(declare-fun addacc_21 (Nat_518 Nat_518 Nat_518 Nat_518) Bool)
(assert (forall ((x_53431 Nat_518) (x_53417 Nat_518) (y_2100 Nat_518) (z_1869 Nat_518))
	(=> (addacc_21 x_53431 x_53417 (succ_138 y_2100) z_1869)
	    (addacc_21 x_53431 (succ_138 x_53417) y_2100 z_1869))))
(assert (forall ((x_53433 Nat_518) (x_53418 Nat_518) (z_1869 Nat_518))
	(=> (addacc_21 x_53433 zero_142 x_53418 (succ_138 z_1869))
	    (addacc_21 x_53433 zero_142 (succ_138 x_53418) z_1869))))
(assert (forall ((x_53435 Nat_518))
	(addacc_21 x_53435 zero_142 zero_142 x_53435)))
(declare-fun mulacc_9 (Nat_518 Nat_518 Nat_518 Nat_518) Bool)
(assert (forall ((x_53436 Nat_518) (x_53437 Nat_518) (x_53438 Nat_518) (x_53439 Nat_518) (x_53440 Nat_518) (x_53441 Nat_518) (x_53442 Nat_518) (fail_33 Nat_518))
	(=>	(and (mulacc_9 x_53436 zero_142 zero_142 zero_142)
			(mulacc_9 x_53437 (succ_138 zero_142) zero_142 zero_142)
			(mulacc_9 x_53438 zero_142 (succ_138 zero_142) zero_142)
			(mulacc_9 x_53439 zero_142 zero_142 (succ_138 zero_142))
			(addacc_21 x_53440 x_53437 x_53438 x_53439)
			(addacc_21 x_53441 (succ_138 zero_142) (succ_138 zero_142) (succ_138 zero_142))
			(addacc_21 x_53442 x_53436 x_53440 x_53441)
			(plus_134 fail_33 (succ_138 zero_142) x_53442))
		(mulacc_9 (succ_138 zero_142) (succ_138 zero_142) (succ_138 zero_142) (succ_138 zero_142)))))
(assert (forall ((x_53445 Nat_518) (x_53446 Nat_518) (x_53447 Nat_518) (x_53448 Nat_518) (x_53449 Nat_518) (x_53450 Nat_518) (x_53451 Nat_518) (fail_33 Nat_518) (x_53422 Nat_518) (x_53421 Nat_518) (x_53420 Nat_518))
	(=>	(and (diseqNat_518 x_53420 zero_142)
			(mulacc_9 x_53445 x_53420 x_53421 x_53422)
			(mulacc_9 x_53446 (succ_138 zero_142) x_53421 x_53422)
			(mulacc_9 x_53447 x_53420 (succ_138 zero_142) x_53422)
			(mulacc_9 x_53448 x_53420 x_53421 (succ_138 zero_142))
			(addacc_21 x_53449 x_53446 x_53447 x_53448)
			(addacc_21 x_53450 (succ_138 x_53420) (succ_138 x_53421) (succ_138 x_53422))
			(addacc_21 x_53451 x_53445 x_53449 x_53450)
			(plus_134 fail_33 (succ_138 zero_142) x_53451))
		(mulacc_9 fail_33 (succ_138 x_53420) (succ_138 x_53421) (succ_138 x_53422)))))
(assert (forall ((x_53454 Nat_518) (x_53455 Nat_518) (x_53456 Nat_518) (x_53457 Nat_518) (x_53458 Nat_518) (x_53459 Nat_518) (x_53460 Nat_518) (fail_33 Nat_518) (x_53422 Nat_518) (x_53421 Nat_518))
	(=>	(and (diseqNat_518 x_53421 zero_142)
			(mulacc_9 x_53454 zero_142 x_53421 x_53422)
			(mulacc_9 x_53455 (succ_138 zero_142) x_53421 x_53422)
			(mulacc_9 x_53456 zero_142 (succ_138 zero_142) x_53422)
			(mulacc_9 x_53457 zero_142 x_53421 (succ_138 zero_142))
			(addacc_21 x_53458 x_53455 x_53456 x_53457)
			(addacc_21 x_53459 (succ_138 zero_142) (succ_138 x_53421) (succ_138 x_53422))
			(addacc_21 x_53460 x_53454 x_53458 x_53459)
			(plus_134 fail_33 (succ_138 zero_142) x_53460))
		(mulacc_9 fail_33 (succ_138 zero_142) (succ_138 x_53421) (succ_138 x_53422)))))
(assert (forall ((x_53463 Nat_518) (x_53464 Nat_518) (x_53465 Nat_518) (x_53466 Nat_518) (x_53467 Nat_518) (x_53468 Nat_518) (x_53469 Nat_518) (fail_33 Nat_518) (x_53422 Nat_518) (x_53421 Nat_518) (x_53420 Nat_518))
	(=>	(and (diseqNat_518 x_53420 zero_142)
			(mulacc_9 x_53463 x_53420 x_53421 x_53422)
			(mulacc_9 x_53464 (succ_138 zero_142) x_53421 x_53422)
			(mulacc_9 x_53465 x_53420 (succ_138 zero_142) x_53422)
			(mulacc_9 x_53466 x_53420 x_53421 (succ_138 zero_142))
			(addacc_21 x_53467 x_53464 x_53465 x_53466)
			(addacc_21 x_53468 (succ_138 x_53420) (succ_138 x_53421) (succ_138 x_53422))
			(addacc_21 x_53469 x_53463 x_53467 x_53468)
			(plus_134 fail_33 (succ_138 zero_142) x_53469))
		(mulacc_9 fail_33 (succ_138 x_53420) (succ_138 x_53421) (succ_138 x_53422)))))
(assert (forall ((x_53472 Nat_518) (x_53473 Nat_518) (x_53474 Nat_518) (x_53475 Nat_518) (x_53476 Nat_518) (x_53477 Nat_518) (x_53478 Nat_518) (fail_33 Nat_518) (x_53422 Nat_518))
	(=>	(and (diseqNat_518 x_53422 zero_142)
			(mulacc_9 x_53472 zero_142 zero_142 x_53422)
			(mulacc_9 x_53473 (succ_138 zero_142) zero_142 x_53422)
			(mulacc_9 x_53474 zero_142 (succ_138 zero_142) x_53422)
			(mulacc_9 x_53475 zero_142 zero_142 (succ_138 zero_142))
			(addacc_21 x_53476 x_53473 x_53474 x_53475)
			(addacc_21 x_53477 (succ_138 zero_142) (succ_138 zero_142) (succ_138 x_53422))
			(addacc_21 x_53478 x_53472 x_53476 x_53477)
			(plus_134 fail_33 (succ_138 zero_142) x_53478))
		(mulacc_9 fail_33 (succ_138 zero_142) (succ_138 zero_142) (succ_138 x_53422)))))
(assert (forall ((x_53481 Nat_518) (x_53482 Nat_518) (x_53483 Nat_518) (x_53484 Nat_518) (x_53485 Nat_518) (x_53486 Nat_518) (x_53487 Nat_518) (fail_33 Nat_518) (x_53422 Nat_518) (x_53421 Nat_518) (x_53420 Nat_518))
	(=>	(and (diseqNat_518 x_53420 zero_142)
			(mulacc_9 x_53481 x_53420 x_53421 x_53422)
			(mulacc_9 x_53482 (succ_138 zero_142) x_53421 x_53422)
			(mulacc_9 x_53483 x_53420 (succ_138 zero_142) x_53422)
			(mulacc_9 x_53484 x_53420 x_53421 (succ_138 zero_142))
			(addacc_21 x_53485 x_53482 x_53483 x_53484)
			(addacc_21 x_53486 (succ_138 x_53420) (succ_138 x_53421) (succ_138 x_53422))
			(addacc_21 x_53487 x_53481 x_53485 x_53486)
			(plus_134 fail_33 (succ_138 zero_142) x_53487))
		(mulacc_9 fail_33 (succ_138 x_53420) (succ_138 x_53421) (succ_138 x_53422)))))
(assert (forall ((x_53490 Nat_518) (x_53491 Nat_518) (x_53492 Nat_518) (x_53493 Nat_518) (x_53494 Nat_518) (x_53495 Nat_518) (x_53496 Nat_518) (fail_33 Nat_518) (x_53422 Nat_518) (x_53421 Nat_518))
	(=>	(and (diseqNat_518 x_53421 zero_142)
			(mulacc_9 x_53490 zero_142 x_53421 x_53422)
			(mulacc_9 x_53491 (succ_138 zero_142) x_53421 x_53422)
			(mulacc_9 x_53492 zero_142 (succ_138 zero_142) x_53422)
			(mulacc_9 x_53493 zero_142 x_53421 (succ_138 zero_142))
			(addacc_21 x_53494 x_53491 x_53492 x_53493)
			(addacc_21 x_53495 (succ_138 zero_142) (succ_138 x_53421) (succ_138 x_53422))
			(addacc_21 x_53496 x_53490 x_53494 x_53495)
			(plus_134 fail_33 (succ_138 zero_142) x_53496))
		(mulacc_9 fail_33 (succ_138 zero_142) (succ_138 x_53421) (succ_138 x_53422)))))
(assert (forall ((x_53499 Nat_518) (x_53500 Nat_518) (x_53501 Nat_518) (x_53502 Nat_518) (x_53503 Nat_518) (x_53504 Nat_518) (x_53505 Nat_518) (fail_33 Nat_518) (x_53422 Nat_518) (x_53421 Nat_518) (x_53420 Nat_518))
	(=>	(and (diseqNat_518 x_53420 zero_142)
			(mulacc_9 x_53499 x_53420 x_53421 x_53422)
			(mulacc_9 x_53500 (succ_138 zero_142) x_53421 x_53422)
			(mulacc_9 x_53501 x_53420 (succ_138 zero_142) x_53422)
			(mulacc_9 x_53502 x_53420 x_53421 (succ_138 zero_142))
			(addacc_21 x_53503 x_53500 x_53501 x_53502)
			(addacc_21 x_53504 (succ_138 x_53420) (succ_138 x_53421) (succ_138 x_53422))
			(addacc_21 x_53505 x_53499 x_53503 x_53504)
			(plus_134 fail_33 (succ_138 zero_142) x_53505))
		(mulacc_9 fail_33 (succ_138 x_53420) (succ_138 x_53421) (succ_138 x_53422)))))
(assert (forall ((x_53421 Nat_518) (x_53420 Nat_518))
	(mulacc_9 zero_142 (succ_138 x_53420) (succ_138 x_53421) zero_142)))
(assert (forall ((x_53420 Nat_518) (z_1870 Nat_518))
	(mulacc_9 zero_142 (succ_138 x_53420) zero_142 z_1870)))
(assert (forall ((y_2101 Nat_518) (z_1870 Nat_518))
	(mulacc_9 zero_142 zero_142 y_2101 z_1870)))
(assert (forall ((x_53511 Nat_518) (x_53512 Nat_518) (x_53423 Nat_518) (y_2102 Nat_518) (z_1871 Nat_518))
	(=>	(and true
			(diseqNat_518 x_53511 x_53512)
			(mulacc_9 x_53511 x_53423 y_2102 z_1871)
			(mulacc_9 x_53512 z_1871 y_2102 x_53423))
		false)))
(assert (forall ((x_53513 Nat_518) (x_53514 Nat_518) (x_53515 Nat_518) (x_53516 Nat_518) (x_53424 Nat_518) (y_2103 Nat_518) (z_1872 Nat_518))
	(=>	(and true
			(diseqNat_518 x_53514 x_53516)
			(plus_134 x_53513 y_2103 z_1872)
			(plus_134 x_53514 x_53424 x_53513)
			(plus_134 x_53515 x_53424 y_2103)
			(plus_134 x_53516 x_53515 z_1872))
		false)))
(assert (forall ((x_53517 Nat_518) (x_53518 Nat_518) (x_53425 Nat_518) (y_2104 Nat_518))
	(=>	(and true
			(diseqNat_518 x_53517 x_53518)
			(plus_134 x_53517 x_53425 y_2104)
			(plus_134 x_53518 y_2104 x_53425))
		false)))
(assert (forall ((x_53519 Nat_518) (x_53426 Nat_518))
	(=>	(and true
			(diseqNat_518 x_53519 x_53426)
			(plus_134 x_53519 x_53426 zero_142))
		false)))
(assert (forall ((x_53520 Nat_518) (x_53427 Nat_518))
	(=>	(and true
			(diseqNat_518 x_53520 x_53427)
			(plus_134 x_53520 zero_142 x_53427))
		false)))
(check-sat)
